proyfinal/src/viki/013/andrea/andrea-localstore/experimentInOfficeAgust.take6/worker_1/9b99fe81-bb6a-4ce7-a452-bd6069f2d1e0.als.cnf.out
Reading from standard input... Use '--help' for help.
============================[ Problem Statistics ]=============================
|                                                                             |
|  Number of variables:         87638                                         |
|  Number of clauses:          161767                                         |
|  Parse time:                   0.04 s                                       |
|                                                                             |
============================[ Search Statistics ]==============================
| Conflicts |          ORIGINAL         |          LEARNT          | Progress |
|           |    Vars  Clauses Literals |    Limit  Clauses Lit/Cl |          |
===============================================================================
|       100 |   62256   104799   261824 |    38426      100     11 | 28.962 % |
|       250 |   62256   104799   261824 |    42268      250     23 | 28.962 % |
|       475 |   62256   104799   261824 |    46495      475     58 | 28.962 % |
|       812 |   62256   104799   261824 |    51145      812     68 | 28.962 % |
|      1318 |   62256   104799   261824 |    56259     1318     74 | 28.962 % |
|      2077 |   62255   104755   261734 |    61885     2076     91 | 28.963 % |
|      3216 |   47714    63933   161467 |    68074     3168     85 | 45.556 % |
|      4924 |   47243    61598   155753 |    74881     4387     71 | 46.093 % |
|      7486 |   47133    60933   154107 |    82370     6931     61 | 46.219 % |
===============================================================================
restarts              : 38
conflicts             : 8986           (7730 /sec)
decisions             : 32919          (0.00 % random) (28319 /sec)
propagations          : 14291915       (12294977 /sec)
conflict literals     : 503260         (41.51 % deleted)
Memory used           : 26.43 MB
CPU time              : 1.16242 s

UNSATISFIABLE
